
Gurobi 6.0.4 (win64) logging started 06/18/15 17:42:05

Read LP format model from file E:\Eigene Dateien\Downloads\Michi shit\VRPTWMS2\instances\mip\fuel\N8-C_DV100-C_SV25_F5_8_No_1.lp
Reading time = 0.01 seconds
(null): 417 rows, 200 columns, 1659 nonzeros
Optimize a model with 417 rows, 200 columns and 1659 nonzeros
Model has 512 quadratic constraints
Coefficient statistics:
  Matrix range    [1e+00, 1e+06]
  Objective range [8e+04, 1e+07]
  Bounds range    [1e+00, 1e+06]
  RHS range       [1e+00, 1e+06]
Presolve removed 68 rows and 38 columns
Presolve time: 0.03s
Presolved: 1007 rows, 491 columns, 5395 nonzeros
Variable types: 329 continuous, 162 integer (131 binary)
Found heuristic solution: objective 8.347480e+07
Found heuristic solution: objective 7.339140e+07

Root relaxation: objective 1.387556e+07, 121 iterations, 0.01 seconds

    Nodes    |    Current Node    |     Objective Bounds      |     Work
 Expl Unexpl |  Obj  Depth IntInf | Incumbent    BestBd   Gap | It/Node Time

     0     0 1.3876e+07    0   34 7.3391e+07 1.3876e+07  81.1%     -    0s
H    0     0                    6.303890e+07 1.3876e+07  78.0%     -    0s
     0     0 2.1714e+07    0   29 6.3039e+07 2.1714e+07  65.6%     -    0s
H    0     0                    6.298970e+07 2.1714e+07  65.5%     -    0s
H    0     0                    4.227830e+07 2.1714e+07  48.6%     -    0s
     0     0 2.1796e+07    0   19 4.2278e+07 2.1796e+07  48.4%     -    0s
     0     0 2.1853e+07    0   29 4.2278e+07 2.1853e+07  48.3%     -    0s
H    0     0                    3.219890e+07 2.1853e+07  32.1%     -    0s
     0     0 2.1862e+07    0   29 3.2199e+07 2.1862e+07  32.1%     -    0s
     0     0 2.1862e+07    0   30 3.2199e+07 2.1862e+07  32.1%     -    0s
     0     0 2.1862e+07    0   31 3.2199e+07 2.1862e+07  32.1%     -    0s
     0     0 2.1862e+07    0   31 3.2199e+07 2.1862e+07  32.1%     -    0s
     0     2 2.1862e+07    0   31 3.2199e+07 2.1862e+07  32.1%     -    0s

Cutting planes:
  Learned: 1
  Gomory: 3
  Cover: 5
  Implied bound: 3
  Clique: 4
  MIR: 5
  GUB cover: 5

Explored 81 nodes (981 simplex iterations) in 0.14 seconds
Thread count was 4 (of 4 available processors)

Optimal solution found (tolerance 1.00e-04)
Best objective 3.219890000000e+07, best bound 3.219890000000e+07, gap 0.0%
k_c1	929999.0
k_c2	80001.0
k_c3	20000.0
k_c4	50001.0
k_c5	1000000.0
k_c6	999999.0
k_c7	1000000.0
k_c8	969998.0
k_dN	-0.0
o_1	-0.0
o_2	-0.0
o_3	-0.0
o_4	-0.0
o_5	-0.0
o_6	-0.0
o_7	-0.0
o_8	-0.0
p_1	-0.0
p_2	-0.0
p_3	-0.0
p_4	-0.0
p_5	-0.0
p_6	-0.0
p_7	-0.0
p_8	-0.0
phi_c1	20811.0
phi_c2	20084.0
phi_c3	14731.0
phi_c4	10785.0
phi_c5	33722.0
phi_c6	39108.0
phi_c7	41203.0
phi_c8	29788.0
phi_d0	50000.0
phi_dN	-0.0
tauD_c1	600000.0
tauD_c2	650000.0
tauD_c3	799999.0
tauD_c4	799999.0
tauD_c5	552249.0
tauD_c6	65174.0
tauD_c7	200000.0
tauD_c8	250000.0
tauD_d0	-0.0
tauD_dN	1000000.0
tauS_c1	864650.0
tauS_c2	844950.0
tauS_c3	864950.0
tauS_c4	879700.0
tauS_c5	859175.0
tauS_c6	879300.0
tauS_c7	887125.0
tauS_c8	845800.0
tauS_d0	-0.0
tauS_dN	1000000.0
x_c1_c3	1.0
x_c2_dN	1.0
x_c3_dN	1.0
x_c4_dN	1.0
x_c5_c2	1.0
x_c6_c8	1.0
x_c7_c1	1.0
x_c8_c4	1.0
x_d0_c5	1.0
x_d0_c6	1.0
x_d0_c7	1.0
